p wcnf 200 600
w -2 0.367879 0
w 2 2.718282 0
w -3 0.367879 0
w 3 2.718282 0
w -4 0.367879 0
w 4 2.718282 0
w -5 0.367879 0
w 5 2.718282 0
w -6 0.367879 0
w 6 2.718282 0
w -8 0.367879 0
w 8 2.718282 0
w -9 0.367879 0
w 9 2.718282 0
w -10 0.367879 0
w 10 2.718282 0
w -11 0.367879 0
w 11 2.718282 0
w -12 0.367879 0
w 12 2.718282 0
w -13 0.367879 0
w 13 2.718282 0
w -15 0.367879 0
w 15 2.718282 0
w -16 0.367879 0
w 16 2.718282 0
w -17 0.367879 0
w 17 2.718282 0
w -18 0.367879 0
w 18 2.718282 0
w -19 0.367879 0
w 19 2.718282 0
w -20 0.367879 0
w 20 2.718282 0
w -21 0.367879 0
w 21 2.718282 0
w -22 0.367879 0
w 22 2.718282 0
w -23 0.367879 0
w 23 2.718282 0
w -25 0.367879 0
w 25 2.718282 0
w -26 0.367879 0
w 26 2.718282 0
w -27 0.367879 0
w 27 2.718282 0
w -28 0.367879 0
w 28 2.718282 0
w -29 0.367879 0
w 29 2.718282 0
w -30 0.367879 0
w 30 2.718282 0
w -32 0.367879 0
w 32 2.718282 0
w -33 0.367879 0
w 33 2.718282 0
w -34 0.367879 0
w 34 2.718282 0
w -35 0.367879 0
w 35 2.718282 0
w -36 0.367879 0
w 36 2.718282 0
w -37 0.367879 0
w 37 2.718282 0
w -38 0.367879 0
w 38 2.718282 0
w -40 0.367879 0
w 40 2.718282 0
w -41 0.367879 0
w 41 2.718282 0
w -42 0.367879 0
w 42 2.718282 0
w -43 0.367879 0
w 43 2.718282 0
w -44 0.367879 0
w 44 2.718282 0
w -46 0.367879 0
w 46 2.718282 0
w -47 0.367879 0
w 47 2.718282 0
w -48 0.367879 0
w 48 2.718282 0
w -49 0.367879 0
w 49 2.718282 0
w -51 0.367879 0
w 51 2.718282 0
w -52 0.367879 0
w 52 2.718282 0
w -53 0.367879 0
w 53 2.718282 0
w -54 0.367879 0
w 54 2.718282 0
w -55 0.367879 0
w 55 2.718282 0
w -56 0.367879 0
w 56 2.718282 0
w -57 0.367879 0
w 57 2.718282 0
w -59 0.367879 0
w 59 2.718282 0
w -60 0.367879 0
w 60 2.718282 0
w -61 0.367879 0
w 61 2.718282 0
w -62 0.367879 0
w 62 2.718282 0
w -63 0.367879 0
w 63 2.718282 0
w -64 0.367879 0
w 64 2.718282 0
w -65 0.367879 0
w 65 2.718282 0
w -66 0.367879 0
w 66 2.718282 0
w -67 0.367879 0
w 67 2.718282 0
w -68 0.367879 0
w 68 2.718282 0
w -70 0.367879 0
w 70 2.718282 0
w -71 0.367879 0
w 71 2.718282 0
w -72 0.367879 0
w 72 2.718282 0
w -73 0.367879 0
w 73 2.718282 0
w -75 0.367879 0
w 75 2.718282 0
w -76 0.367879 0
w 76 2.718282 0
w -77 0.367879 0
w 77 2.718282 0
w -79 0.367879 0
w 79 2.718282 0
w -80 0.367879 0
w 80 2.718282 0
w -81 0.367879 0
w 81 2.718282 0
w -83 0.367879 0
w 83 2.718282 0
w -84 0.367879 0
w 84 2.718282 0
w -85 0.367879 0
w 85 2.718282 0
w -87 0.367879 0
w 87 2.718282 0
w -88 0.367879 0
w 88 2.718282 0
w -90 0.367879 0
w 90 2.718282 0
w -91 0.367879 0
w 91 2.718282 0
w -92 0.367879 0
w 92 2.718282 0
w -93 0.367879 0
w 93 2.718282 0
w -94 0.367879 0
w 94 2.718282 0
w -95 0.367879 0
w 95 2.718282 0
w -96 0.367879 0
w 96 2.718282 0
w -97 0.367879 0
w 97 2.718282 0
w -99 0.367879 0
w 99 2.718282 0
w -100 0.367879 0
w 100 2.718282 0
w -101 0.367879 0
w 101 2.718282 0
w -102 0.367879 0
w 102 2.718282 0
w -104 0.367879 0
w 104 2.718282 0
w -105 0.367879 0
w 105 2.718282 0
w -106 0.367879 0
w 106 2.718282 0
w -107 0.367879 0
w 107 2.718282 0
w -108 0.367879 0
w 108 2.718282 0
w -110 0.367879 0
w 110 2.718282 0
w -111 0.367879 0
w 111 2.718282 0
w -112 0.367879 0
w 112 2.718282 0
w -113 0.367879 0
w 113 2.718282 0
w -114 0.367879 0
w 114 2.718282 0
w -116 0.367879 0
w 116 2.718282 0
w -117 0.367879 0
w 117 2.718282 0
w -118 0.367879 0
w 118 2.718282 0
w -119 0.367879 0
w 119 2.718282 0
w -121 0.367879 0
w 121 2.718282 0
w -122 0.367879 0
w 122 2.718282 0
w -124 0.367879 0
w 124 2.718282 0
w -125 0.367879 0
w 125 2.718282 0
w -126 0.367879 0
w 126 2.718282 0
w -127 0.367879 0
w 127 2.718282 0
w -129 0.367879 0
w 129 2.718282 0
w -130 0.367879 0
w 130 2.718282 0
w -132 0.367879 0
w 132 2.718282 0
w -133 0.367879 0
w 133 2.718282 0
w -134 0.367879 0
w 134 2.718282 0
w -136 0.367879 0
w 136 2.718282 0
w -137 0.367879 0
w 137 2.718282 0
w -138 0.367879 0
w 138 2.718282 0
w -140 0.367879 0
w 140 2.718282 0
w -141 0.367879 0
w 141 2.718282 0
w -142 0.367879 0
w 142 2.718282 0
w -144 0.367879 0
w 144 2.718282 0
w -145 0.367879 0
w 145 2.718282 0
w -146 0.367879 0
w 146 2.718282 0
w -148 0.367879 0
w 148 2.718282 0
w -149 0.367879 0
w 149 2.718282 0
w -150 0.367879 0
w 150 2.718282 0
w -151 0.367879 0
w 151 2.718282 0
w -152 0.367879 0
w 152 2.718282 0
w -155 0.367879 0
w 155 2.718282 0
w -157 0.367879 0
w 157 2.718282 0
w -158 0.367879 0
w 158 2.718282 0
w -160 0.367879 0
w 160 2.718282 0
w -162 0.367879 0
w 162 2.718282 0
w -163 0.367879 0
w 163 2.718282 0
w -164 0.367879 0
w 164 2.718282 0
w -165 0.367879 0
w 165 2.718282 0
w -166 0.367879 0
w 166 2.718282 0
w -168 0.367879 0
w 168 2.718282 0
w -169 0.367879 0
w 169 2.718282 0
w -170 0.367879 0
w 170 2.718282 0
w -173 0.367879 0
w 173 2.718282 0
w -174 0.367879 0
w 174 2.718282 0
w -175 0.367879 0
w 175 2.718282 0
w -178 0.367879 0
w 178 2.718282 0
w -179 0.367879 0
w 179 2.718282 0
w -181 0.367879 0
w 181 2.718282 0
w -184 0.367879 0
w 184 2.718282 0
w -188 0.367879 0
w 188 2.718282 0
w -189 0.367879 0
w 189 2.718282 0
w -191 0.367879 0
w 191 2.718282 0
w -193 0.367879 0
w 193 2.718282 0
w -195 0.367879 0
w 195 2.718282 0
w -198 0.367879 0
w 198 2.718282 0
2 1 74 0
2 -1 -74 0
-2 1 -74 0
-2 -1 74 0
3 1 120 0
3 -1 -120 0
-3 1 -120 0
-3 -1 120 0
4 1 123 0
4 -1 -123 0
-4 1 -123 0
-4 -1 123 0
5 1 135 0
5 -1 -135 0
-5 1 -135 0
-5 -1 135 0
6 1 167 0
6 -1 -167 0
-6 1 -167 0
-6 -1 167 0
8 7 39 0
8 -7 -39 0
-8 7 -39 0
-8 -7 39 0
9 7 123 0
9 -7 -123 0
-9 7 -123 0
-9 -7 123 0
10 7 182 0
10 -7 -182 0
-10 7 -182 0
-10 -7 182 0
11 7 183 0
11 -7 -183 0
-11 7 -183 0
-11 -7 183 0
12 7 190 0
12 -7 -190 0
-12 7 -190 0
-12 -7 190 0
13 7 194 0
13 -7 -194 0
-13 7 -194 0
-13 -7 194 0
15 14 24 0
15 -14 -24 0
-15 14 -24 0
-15 -14 24 0
16 14 31 0
16 -14 -31 0
-16 14 -31 0
-16 -14 31 0
17 14 74 0
17 -14 -74 0
-17 14 -74 0
-17 -14 74 0
18 14 78 0
18 -14 -78 0
-18 14 -78 0
-18 -14 78 0
19 14 135 0
19 -14 -135 0
-19 14 -135 0
-19 -14 135 0
20 14 139 0
20 -14 -139 0
-20 14 -139 0
-20 -14 139 0
21 14 154 0
21 -14 -154 0
-21 14 -154 0
-21 -14 154 0
22 14 196 0
22 -14 -196 0
-22 14 -196 0
-22 -14 196 0
23 14 199 0
23 -14 -199 0
-23 14 -199 0
-23 -14 199 0
25 24 58 0
25 -24 -58 0
-25 24 -58 0
-25 -24 58 0
26 24 69 0
26 -24 -69 0
-26 24 -69 0
-26 -24 69 0
27 24 120 0
27 -24 -120 0
-27 24 -120 0
-27 -24 120 0
28 24 167 0
28 -24 -167 0
-28 24 -167 0
-28 -24 167 0
29 24 171 0
29 -24 -171 0
-29 24 -171 0
-29 -24 171 0
30 24 192 0
30 -24 -192 0
-30 24 -192 0
-30 -24 192 0
32 31 39 0
32 -31 -39 0
-32 31 -39 0
-32 -31 39 0
33 31 69 0
33 -31 -69 0
-33 31 -69 0
-33 -31 69 0
34 31 123 0
34 -31 -123 0
-34 31 -123 0
-34 -31 123 0
35 31 131 0
35 -31 -131 0
-35 31 -131 0
-35 -31 131 0
36 31 167 0
36 -31 -167 0
-36 31 -167 0
-36 -31 167 0
37 31 171 0
37 -31 -171 0
-37 31 -171 0
-37 -31 171 0
38 31 186 0
38 -31 -186 0
-38 31 -186 0
-38 -31 186 0
40 39 123 0
40 -39 -123 0
-40 39 -123 0
-40 -39 123 0
41 39 153 0
41 -39 -153 0
-41 39 -153 0
-41 -39 153 0
42 39 185 0
42 -39 -185 0
-42 39 -185 0
-42 -39 185 0
43 39 197 0
43 -39 -197 0
-43 39 -197 0
-43 -39 197 0
44 39 199 0
44 -39 -199 0
-44 39 -199 0
-44 -39 199 0
46 45 103 0
46 -45 -103 0
-46 45 -103 0
-46 -45 103 0
47 45 153 0
47 -45 -153 0
-47 45 -153 0
-47 -45 153 0
48 45 172 0
48 -45 -172 0
-48 45 -172 0
-48 -45 172 0
49 45 187 0
49 -45 -187 0
-49 45 -187 0
-49 -45 187 0
51 50 103 0
51 -50 -103 0
-51 50 -103 0
-51 -50 103 0
52 50 131 0
52 -50 -131 0
-52 50 -131 0
-52 -50 131 0
53 50 135 0
53 -50 -135 0
-53 50 -135 0
-53 -50 135 0
54 50 156 0
54 -50 -156 0
-54 50 -156 0
-54 -50 156 0
55 50 187 0
55 -50 -187 0
-55 50 -187 0
-55 -50 187 0
56 50 192 0
56 -50 -192 0
-56 50 -192 0
-56 -50 192 0
57 50 196 0
57 -50 -196 0
-57 50 -196 0
-57 -50 196 0
59 58 69 0
59 -58 -69 0
-59 58 -69 0
-59 -58 69 0
60 58 78 0
60 -58 -78 0
-60 58 -78 0
-60 -58 78 0
61 58 82 0
61 -58 -82 0
-61 58 -82 0
-61 -58 82 0
62 58 120 0
62 -58 -120 0
-62 58 -120 0
-62 -58 120 0
63 58 135 0
63 -58 -135 0
-63 58 -135 0
-63 -58 135 0
64 58 147 0
64 -58 -147 0
-64 58 -147 0
-64 -58 147 0
65 58 161 0
65 -58 -161 0
-65 58 -161 0
-65 -58 161 0
66 58 177 0
66 -58 -177 0
-66 58 -177 0
-66 -58 177 0
67 58 196 0
67 -58 -196 0
-67 58 -196 0
-67 -58 196 0
68 58 197 0
68 -58 -197 0
-68 58 -197 0
-68 -58 197 0
70 69 109 0
70 -69 -109 0
-70 69 -109 0
-70 -69 109 0
71 69 161 0
71 -69 -161 0
-71 69 -161 0
-71 -69 161 0
72 69 180 0
72 -69 -180 0
-72 69 -180 0
-72 -69 180 0
73 69 182 0
73 -69 -182 0
-73 69 -182 0
-73 -69 182 0
75 74 103 0
75 -74 -103 0
-75 74 -103 0
-75 -74 103 0
76 74 135 0
76 -74 -135 0
-76 74 -135 0
-76 -74 135 0
77 74 183 0
77 -74 -183 0
-77 74 -183 0
-77 -74 183 0
79 78 131 0
79 -78 -131 0
-79 78 -131 0
-79 -78 131 0
80 78 154 0
80 -78 -154 0
-80 78 -154 0
-80 -78 154 0
81 78 186 0
81 -78 -186 0
-81 78 -186 0
-81 -78 186 0
83 82 135 0
83 -82 -135 0
-83 82 -135 0
-83 -82 135 0
84 82 196 0
84 -82 -196 0
-84 82 -196 0
-84 -82 196 0
85 82 197 0
85 -82 -197 0
-85 82 -197 0
-85 -82 197 0
87 86 153 0
87 -86 -153 0
-87 86 -153 0
-87 -86 153 0
88 86 177 0
88 -86 -177 0
-88 86 -177 0
-88 -86 177 0
90 89 109 0
90 -89 -109 0
-90 89 -109 0
-90 -89 109 0
91 89 115 0
91 -89 -115 0
-91 89 -115 0
-91 -89 115 0
92 89 123 0
92 -89 -123 0
-92 89 -123 0
-92 -89 123 0
93 89 135 0
93 -89 -135 0
-93 89 -135 0
-93 -89 135 0
94 89 147 0
94 -89 -147 0
-94 89 -147 0
-94 -89 147 0
95 89 153 0
95 -89 -153 0
-95 89 -153 0
-95 -89 153 0
96 89 167 0
96 -89 -167 0
-96 89 -167 0
-96 -89 167 0
97 89 183 0
97 -89 -183 0
-97 89 -183 0
-97 -89 183 0
99 98 167 0
99 -98 -167 0
-99 98 -167 0
-99 -98 167 0
100 98 176 0
100 -98 -176 0
-100 98 -176 0
-100 -98 176 0
101 98 197 0
101 -98 -197 0
-101 98 -197 0
-101 -98 197 0
102 98 199 0
102 -98 -199 0
-102 98 -199 0
-102 -98 199 0
104 103 109 0
104 -103 -109 0
-104 103 -109 0
-104 -103 109 0
105 103 131 0
105 -103 -131 0
-105 103 -131 0
-105 -103 131 0
106 103 153 0
106 -103 -153 0
-106 103 -153 0
-106 -103 153 0
107 103 180 0
107 -103 -180 0
-107 103 -180 0
-107 -103 180 0
108 103 197 0
108 -103 -197 0
-108 103 -197 0
-108 -103 197 0
110 109 147 0
110 -109 -147 0
-110 109 -147 0
-110 -109 147 0
111 109 183 0
111 -109 -183 0
-111 109 -183 0
-111 -109 183 0
112 109 187 0
112 -109 -187 0
-112 109 -187 0
-112 -109 187 0
113 109 197 0
113 -109 -197 0
-113 109 -197 0
-113 -109 197 0
114 109 200 0
114 -109 -200 0
-114 109 -200 0
-114 -109 200 0
116 115 177 0
116 -115 -177 0
-116 115 -177 0
-116 -115 177 0
117 115 180 0
117 -115 -180 0
-117 115 -180 0
-117 -115 180 0
118 115 194 0
118 -115 -194 0
-118 115 -194 0
-118 -115 194 0
119 115 199 0
119 -115 -199 0
-119 115 -199 0
-119 -115 199 0
121 120 161 0
121 -120 -161 0
-121 120 -161 0
-121 -120 161 0
122 120 197 0
122 -120 -197 0
-122 120 -197 0
-122 -120 197 0
124 123 156 0
124 -123 -156 0
-124 123 -156 0
-124 -123 156 0
125 123 190 0
125 -123 -190 0
-125 123 -190 0
-125 -123 190 0
126 123 194 0
126 -123 -194 0
-126 123 -194 0
-126 -123 194 0
127 123 196 0
127 -123 -196 0
-127 123 -196 0
-127 -123 196 0
129 128 147 0
129 -128 -147 0
-129 128 -147 0
-129 -128 147 0
130 128 180 0
130 -128 -180 0
-130 128 -180 0
-130 -128 180 0
132 131 161 0
132 -131 -161 0
-132 131 -161 0
-132 -131 161 0
133 131 167 0
133 -131 -167 0
-133 131 -167 0
-133 -131 167 0
134 131 176 0
134 -131 -176 0
-134 131 -176 0
-134 -131 176 0
136 135 176 0
136 -135 -176 0
-136 135 -176 0
-136 -135 176 0
137 135 194 0
137 -135 -194 0
-137 135 -194 0
-137 -135 194 0
138 135 199 0
138 -135 -199 0
-138 135 -199 0
-138 -135 199 0
140 139 171 0
140 -139 -171 0
-140 139 -171 0
-140 -139 171 0
141 139 183 0
141 -139 -183 0
-141 139 -183 0
-141 -139 183 0
142 139 199 0
142 -139 -199 0
-142 139 -199 0
-142 -139 199 0
144 143 161 0
144 -143 -161 0
-144 143 -161 0
-144 -143 161 0
145 143 172 0
145 -143 -172 0
-145 143 -172 0
-145 -143 172 0
146 143 197 0
146 -143 -197 0
-146 143 -197 0
-146 -143 197 0
148 147 153 0
148 -147 -153 0
-148 147 -153 0
-148 -147 153 0
149 147 167 0
149 -147 -167 0
-149 147 -167 0
-149 -147 167 0
150 147 177 0
150 -147 -177 0
-150 147 -177 0
-150 -147 177 0
151 147 185 0
151 -147 -185 0
-151 147 -185 0
-151 -147 185 0
152 147 194 0
152 -147 -194 0
-152 147 -194 0
-152 -147 194 0
155 154 161 0
155 -154 -161 0
-155 154 -161 0
-155 -154 161 0
157 156 185 0
157 -156 -185 0
-157 156 -185 0
-157 -156 185 0
158 156 186 0
158 -156 -186 0
-158 156 -186 0
-158 -156 186 0
160 159 176 0
160 -159 -176 0
-160 159 -176 0
-160 -159 176 0
162 161 167 0
162 -161 -167 0
-162 161 -167 0
-162 -161 167 0
163 161 177 0
163 -161 -177 0
-163 161 -177 0
-163 -161 177 0
164 161 180 0
164 -161 -180 0
-164 161 -180 0
-164 -161 180 0
165 161 194 0
165 -161 -194 0
-165 161 -194 0
-165 -161 194 0
166 161 197 0
166 -161 -197 0
-166 161 -197 0
-166 -161 197 0
168 167 172 0
168 -167 -172 0
-168 167 -172 0
-168 -167 172 0
169 167 176 0
169 -167 -176 0
-169 167 -176 0
-169 -167 176 0
170 167 190 0
170 -167 -190 0
-170 167 -190 0
-170 -167 190 0
173 172 182 0
173 -172 -182 0
-173 172 -182 0
-173 -172 182 0
174 172 183 0
174 -172 -183 0
-174 172 -183 0
-174 -172 183 0
175 172 190 0
175 -172 -190 0
-175 172 -190 0
-175 -172 190 0
178 177 185 0
178 -177 -185 0
-178 177 -185 0
-178 -177 185 0
179 177 190 0
179 -177 -190 0
-179 177 -190 0
-179 -177 190 0
181 180 192 0
181 -180 -192 0
-181 180 -192 0
-181 -180 192 0
184 183 196 0
184 -183 -196 0
-184 183 -196 0
-184 -183 196 0
188 187 196 0
188 -187 -196 0
-188 187 -196 0
-188 -187 196 0
189 187 199 0
189 -187 -199 0
-189 187 -199 0
-189 -187 199 0
191 190 192 0
191 -190 -192 0
-191 190 -192 0
-191 -190 192 0
193 192 194 0
193 -192 -194 0
-193 192 -194 0
-193 -192 194 0
195 194 199 0
195 -194 -199 0
-195 194 -199 0
-195 -194 199 0
198 197 199 0
198 -197 -199 0
-198 197 -199 0
-198 -197 199 0
